&CONTROL
    calculation = "scf"
    verbosity = "high"
    tstress = .true.
    tprnfor = .true.
    pseudo_dir = "./"
/
&SYSTEM
    ibrav = 0
    nat = 1
    ntyp = 1
    ecutwfc = 40
    ecutrho = 240
    occupations = "smearing"
    degauss = 0.02
    smearing = "m-v"
/
&ELECTRONS
    mixing_beta = 0.5
/
ATOMIC_SPECIES
Al     26.98153850  al_pbe_v1.uspp.F.UPF
ATOMIC_POSITIONS {crystal}
Al      0.00000000    0.00000000    0.00000000
Al      0.00000000    0.50000000    0.50000000
Al      0.50000000    0.50000000    0.00000000
Al      0.50000000    0.00000000    0.50000000
K_POINTS {automatic}
8 8 8 0 0 0
CELL_PARAMETERS {angstrom}
 -2.85690000   -1.64943198    2.33264908
  0.00000000   -3.29886397   -2.33264908
  2.85690000   -1.64943198    2.33264908
