&CONTROL
    calculation = "scf"
    verbosity = "high"
    tstress = .true.
    tprnfor = .true.
    pseudo_dir = "~/pseudos/qe/default"
/
&SYSTEM
    ibrav = 0
    nat = 2
    ntyp = 2
    ecutwfc = 45
    ecutrho = 300
    occupations = "smearing"
    degauss = 0.02
    smearing = "m-v"
/
&ELECTRONS
    mixing_beta = 0.5
/
ATOMIC_SPECIES
Fe     55.84500000  None
O      15.99940000  None
ATOMIC_POSITIONS {crystal}
Fe      0.00000000    0.00000000    0.00000000
O       0.50000000    0.50000000    0.50000000
K_POINTS {automatic}
11 11 11 0 0 0
CELL_PARAMETERS {angstrom}
  2.89560000   -1.67177544    2.36424750
  2.89560000    1.67177544   -2.36424750
  0.00000000    3.34355088    2.36424750
